CapLotSizing_PM/src/Instancias/NCLSHT/6i12p2m/NBA00.OUT
 CG ITER, OVMR, OVMRUB =           1   17532.6992188   17532.6992188
 CG ITER, OVMR, OVMRUB =           2   16913.8007812   16913.8007812
 CG ITER, OVMR, OVMRUB =           3   15426.0058594   16913.8007812
 CG ITER, OVMR, OVMRUB =           4   15389.1806641   16913.8007812
 CG ITER, OVMR, OVMRUB =           5   13716.2431641   16913.8007812
 CG ITER, OVMR, OVMRUB =           6   14248.1699219   16913.8007812
 CG ITER, OVMR, OVMRUB =           7   14514.2666016   16913.8007812
 CG ITER, OVMR, OVMRUB =           8   14690.8417969   16913.8007812
 CG ITER, OVMR, OVMRUB =           9   14871.2001953   16913.8007812
 CG ITER, OVMR, OVMRUB =          10   15043.8134766   16913.8007812
 CG ITER, OVMR, OVMRUB =          11   15164.2744141   16202.8251953
 CG ITER, OVMR, OVMRUB =          12   15213.3544922   16202.8251953
 CG ITER, OVMR, OVMRUB =          13   15220.2978516   16202.8251953
 CG ITER, OVMR, OVMRUB =          14   15222.3486328   16167.3330078
 CG ITER, OVMR, OVMRUB =          15   15217.1201172   16167.3330078
 CG ITER, OVMR, OVMRUB =          16   15217.0107422   16167.3330078
 CG ITER, OVMR, OVMRUB =          17   15219.4189453   16167.3330078
 CG ITER, OVMR, OVMRUB =          18   15218.0371094   16167.3330078
 CG ITER, OVMR, OVMRUB =          19   15218.2431641   16167.3330078
 CG ITER, OVMR, OVMRUB =          20   15218.5566406   16167.3330078
 CG ITER, OVMR, OVMRUB =          21   15218.5566406   16167.3330078
OVLB =   15218.5566406 OVLUB =   16167.3330078 TIME =       2.4200001
